10
1 0 1
2 0 35
2 1 29
3 0 4
3 1 33
3 2 17
4 0 28
4 1 27
4 2 5
4 3 14
5 0 11
5 1 4
5 2 27
5 3 8
5 4 27
6 0 8
6 1 30
6 2 23
6 3 29
6 4 32
6 5 11
7 0 1
7 1 16
7 2 34
7 3 2
7 4 29
7 5 31
7 6 5
8 0 36
8 1 31
8 2 8
8 3 1
8 4 18
8 5 18
8 6 13
8 7 3
9 0 24
9 1 18
9 2 21
9 3 30
9 4 11
9 5 17
9 6 9
9 7 5
9 8 34
